n_res = 2;
rcap = [14, 22];
rtype = [1, 1];
n_tasks = 20;
modes = [ {1, 2, 3}, {4, 5, 6}, {7, 8, 9}, {10, 11, 12}, {13, 14, 15}, {16, 17, 18}, {19, 20, 21}, {22, 23, 24}, {25, 26, 27}, {28, 29, 30}, {31, 32, 33}, {34, 35, 36}, {37, 38, 39}, {40, 41, 42}, {43, 44, 45}, {46, 47, 48}, {49, 50, 51}, {52, 53, 54}, {55, 56, 57}, {58, 59, 60} ];
succ = [ {4, 6, 12}, {8, 12, 17}, {7, 15, 17}, {5, 8, 17}, {13}, {7, 13, 18}, {9, 14}, {10, 11, 15}, {16}, {20}, {20}, {14}, {14, 16}, {19}, {16, 18}, {19, 20}, {18, 19}, {}, {}, {} ];
n_opt = 60;
dur = [7, 9, 10, 3, 7, 10, 3, 3, 8, 4, 5, 5, 2, 5, 10, 1, 3, 10, 2, 4, 7, 2, 6, 10, 2, 6, 6, 3, 6, 9, 1, 8, 10, 2, 3, 8, 4, 5, 6, 3, 3, 4, 2, 3, 10, 5, 6, 10, 3, 3, 5, 2, 4, 7, 7, 8, 10, 4, 6, 8];
rreq = [|  0,  4,  0,  0,  4,  1,  8,  0,  0,  5,  1,  0,  5,  0,  3,  0,  8,  6,  7,  0,  3,  0,  5,  3,  8,  0,  5,  4,  0,  0,  0,  0,  8,  0,  7,  3,  0,  7,  3,  3,  0,  0,  0,  9,  0,  7,  0,  5,  7,  0,  0,  6,  5,  0,  0,  4,  3,  0,  0,  3
        |  8,  0,  7,  1,  0,  0,  0,  4,  3,  0,  0,  6,  0,  8,  0,  5,  0,  0,  0,  7,  0,  4,  0,  0,  0,  4,  0,  0,  5,  3, 10,  7,  0,  2,  0,  0,  7,  0,  0,  0,  9,  7,  8,  0,  6,  0,  2,  0,  0,  9,  6,  0,  0,  3,  6,  0,  0,  4,  3,  0 |];
